n_machines = 10;
n_resources = 15;
n_jobs = 37;
horizon = 178;
LB = 26;
n_jobs_per_resource = [3, 4, 4, 2, 2, 1, 1, 4, 1, 4, 1, 1, 4, 1, 4];
duration = [3, 5, 9, 6, 8, 6, 4, 1, 1, 6, 7, 1, 2, 8, 1, 3, 4, 9, 3, 5, 5, 4, 3, 7, 5, 4, 4, 6, 8, 9, 8, 1, 7, 4, 5, 1, 5]